(set-logic ALL)
(declare-const GEN1 Int)
(declare-const GEN2 Int)
(declare-const GEN3 Real)
(declare-const GEN4 Real)
(declare-const GEN5 Real)
(declare-const GEN6 Real)
(declare-const GEN7 Real)
(declare-const GEN8 Real)
(declare-const BAV9 Bool)
(declare-const BAV10 Bool)
(declare-const BAV11 Bool)
(declare-const BAV12 Bool)
(declare-const BAV13 Bool)
(declare-const BAV14 Bool)
(declare-fun x () Real)
(assert (= (* x x) GEN1))
(assert (> x GEN2))
(assert (or (> (+ (* x x) (* (- GEN3) x)) (- GEN4)) (> (+ (* x x) (* (- GEN5) x)) (- GEN6)) (> (+ (* x x) (* (- GEN7) x)) (- GEN8))))
(assert (= BAV9 (= (* x x) GEN1)))
(assert (= BAV10 (> x GEN2)))
(assert (= BAV11 (or (> (+ (* x x) (* (- GEN3) x)) (- GEN4)) (> (+ (* x x) (* (- GEN5) x)) (- GEN6)) (> (+ (* x x) (* (- GEN7) x)) (- GEN8)))))
(assert (= BAV12 (> (+ (* x x) (* (- GEN3) x)) (- GEN4))))
(assert (= BAV13 (> (+ (* x x) (* (- GEN5) x)) (- GEN6))))
(assert (= BAV14 (> (+ (* x x) (* (- GEN7) x)) (- GEN8))))
(check-sat)